(set-info :smt-lib-version 2.6)
(set-logic QF_S)
(set-info :source |
Generated by: Murphy Berzish, Mitja Kulczynski, Federico Mora, Florin Manea, Joel Day, Dirk Nowotka, Vijay Ganesh, Zhengyang Lu
Generated on: 2020-10-01
Description: Translated from a collection of real-world regex queries, AutomataArk, collected by Loris D’Antoni and Fang Wang: https://github.com/lorisdanto/automatark
Application: Evaluate solvers on real-world regex queries
Target solver: Z3str3RE, CVC4, OSTRICH, Z3seq, Z3str3, Z3-Trau
Publications: Berzish, M., Kulczynski, M., Mora, F., Manea, F., Day, J. D., Nowotka, D., & Ganesh, V. (2021, July). An SMT solver for regular expressions and linear arithmetic over string length. In CAV 2021.
|)
(set-info :license "https://creativecommons.org/licenses/by/4.0/")
(set-info :category "industrial")
(set-info :status unsat)

(declare-const X String)
(assert (str.in_re X (re.++ (str.to_re "Host:") (re.+ (re.union (str.to_re " ") (str.to_re "\u{9}") (str.to_re "\u{a}") (str.to_re "\u{c}") (str.to_re "\u{d}"))) (str.to_re ".ico/sLogearch195.225.Referer:\u{a}"))))
(assert (str.in_re X (re.++ (str.to_re "/NICK A[New|") (re.union (str.to_re "98") (str.to_re "Me") (re.++ (str.to_re "NT4") re.allchar (str.to_re "0")) (str.to_re "2000") (str.to_re "XP") (str.to_re "Serv2003") (str.to_re "Vis") (str.to_re "7") (str.to_re "Unk")) (str.to_re "|x") (re.union (str.to_re "86") (str.to_re "64")) (str.to_re "|") ((_ re.loop 1 2) (re.union (re.range "A" "Z") (str.to_re "-"))) (str.to_re "|") ((_ re.loop 1 4) (re.range "0" "9")) (str.to_re "]/\u{a}"))))
(assert (str.in_re X (re.++ (str.to_re "HXDownload") (re.+ (re.union (str.to_re " ") (str.to_re "\u{9}") (str.to_re "\u{a}") (str.to_re "\u{c}") (str.to_re "\u{d}"))) (str.to_re "Host:ArcadeHourspjpoptwql/rlnjFrom:\u{a}"))))
(assert (str.in_re X (str.to_re "\u{d}\u{a}Current.earthlinkSpyBuddy\u{a}")))
(check-sat)

(exit)
